NAME : S-G-200-16.2402.tour
COMMENT : Length = 2402
COMMENT : Found by LKH [Keld Helsgaun] Thu May 17 23:18:21 2018
TYPE : TOUR
DIMENSION : 31
TOUR_SECTION
1
25
17
31
28
13
7
2
3
14
5
4
21
12
6
20
18
19
23
22
27
29
9
16
11
8
15
10
26
24
30
-1
EOF
